p cnf 80 240
1 2 3 4 0
-1 5 0
-2 6 0
-3 7 0
-4 8 0
-5 -2 0
-6 -3 0
-7 -4 0
-5 6 0
-6 7 0
-7 8 0
8 0
9 10 11 12 0
-9 13 0
-10 14 0
-11 15 0
-12 16 0
-13 -10 0
-14 -11 0
-15 -12 0
-13 14 0
-14 15 0
-15 16 0
16 0
17 18 19 20 0
-17 21 0
-18 22 0
-19 23 0
-20 24 0
-21 -18 0
-22 -19 0
-23 -20 0
-21 22 0
-22 23 0
-23 24 0
24 0
25 26 27 28 0
-25 29 0
-26 30 0
-27 31 0
-28 32 0
-29 -26 0
-30 -27 0
-31 -28 0
-29 30 0
-30 31 0
-31 32 0
32 0
33 34 35 36 0
-33 37 0
-34 38 0
-35 39 0
-36 40 0
-37 -34 0
-38 -35 0
-39 -36 0
-37 38 0
-38 39 0
-39 40 0
40 0
41 42 43 44 0
-41 45 0
-42 46 0
-43 47 0
-44 48 0
-45 -42 0
-46 -43 0
-47 -44 0
-45 46 0
-46 47 0
-47 48 0
48 0
49 50 51 52 0
-49 53 0
-50 54 0
-51 55 0
-52 56 0
-53 -50 0
-54 -51 0
-55 -52 0
-53 54 0
-54 55 0
-55 56 0
56 0
57 58 59 60 0
-57 61 0
-58 62 0
-59 63 0
-60 64 0
-61 -58 0
-62 -59 0
-63 -60 0
-61 62 0
-62 63 0
-63 64 0
64 0
65 66 67 68 0
-65 69 0
-66 70 0
-67 71 0
-68 72 0
-69 -66 0
-70 -67 0
-71 -68 0
-69 70 0
-70 71 0
-71 72 0
72 0
73 74 75 76 0
-73 77 0
-74 78 0
-75 79 0
-76 80 0
-77 -74 0
-78 -75 0
-79 -76 0
-77 78 0
-78 79 0
-79 80 0
80 0
-1 -9 0
-2 -10 0
-3 -11 0
-4 -12 0
-1 -17 0
-2 -18 0
-3 -19 0
-4 -20 0
-1 -25 0
-2 -26 0
-3 -27 0
-4 -28 0
-9 -17 0
-10 -18 0
-11 -19 0
-12 -20 0
-9 -25 0
-10 -26 0
-11 -27 0
-12 -28 0
-17 -25 0
-18 -26 0
-19 -27 0
-20 -28 0
-1 -33 0
-9 -33 0
-2 -34 0
-10 -34 0
-3 -35 0
-11 -35 0
-4 -36 0
-12 -36 0
-1 -41 0
-17 -41 0
-2 -42 0
-18 -42 0
-3 -43 0
-19 -43 0
-4 -44 0
-20 -44 0
-1 -49 0
-25 -49 0
-2 -50 0
-26 -50 0
-3 -51 0
-27 -51 0
-4 -52 0
-28 -52 0
-9 -57 0
-17 -57 0
-10 -58 0
-18 -58 0
-11 -59 0
-19 -59 0
-12 -60 0
-20 -60 0
-9 -65 0
-25 -65 0
-10 -66 0
-26 -66 0
-11 -67 0
-27 -67 0
-12 -68 0
-28 -68 0
-17 -73 0
-25 -73 0
-18 -74 0
-26 -74 0
-19 -75 0
-27 -75 0
-20 -76 0
-28 -76 0
-33 -41 0
-34 -42 0
-35 -43 0
-36 -44 0
-33 -49 0
-34 -50 0
-35 -51 0
-36 -52 0
-33 -57 0
-34 -58 0
-35 -59 0
-36 -60 0
-33 -65 0
-34 -66 0
-35 -67 0
-36 -68 0
-41 -49 0
-42 -50 0
-43 -51 0
-44 -52 0
-41 -57 0
-42 -58 0
-43 -59 0
-44 -60 0
-41 -73 0
-42 -74 0
-43 -75 0
-44 -76 0
-49 -65 0
-50 -66 0
-51 -67 0
-52 -68 0
-49 -73 0
-50 -74 0
-51 -75 0
-52 -76 0
-57 -65 0
-58 -66 0
-59 -67 0
-60 -68 0
-57 -73 0
-58 -74 0
-59 -75 0
-60 -76 0
-65 -73 0
-66 -74 0
-67 -75 0
-68 -76 0
